N = 6;
Capacity = 4;
nbVehicles = 10;
maxVisitsPerCustomer = 2;
ItemsPerCustomer = [8, 7, 7, 7, 7, 3];
maxItemsPerCustomer = 8;
binCapacity = 50;
SizesOfItems = [|
  39, 32, 26, 24, 16, 15, 13, 10
| 37, 35, 35, 34, 33, 24, 22, 0
| 50, 50, 50, 50, 22, 21, 13, 0
| 39, 35, 34, 32, 17, 13, 11, 0
| 37, 32, 30, 30, 24, 21, 10, 0
| 32, 23, 23, 0, 0, 0, 0, 0
|];
Distance = [|
  0, 55, 43, 59, 57, 48, 37
| 55, 0, 35, 9, 80, 7, 50
| 43, 35, 0, 44, 45, 31, 62
| 59, 9, 44, 0, 88, 14, 48
| 57, 80, 45, 88, 0, 75, 91
| 48, 7, 31, 14, 75, 0, 45
| 37, 50, 62, 48, 91, 45, 0
|];
